[2026-03-23T13:35:40.394Z] Pipeline "set_exp_2_exp_2_n008_c002_g002" → 2026_03_23_13_35_40_set_exp_2_exp_2_n008_c002_g002_max.sol
Set parameter WLSAccessID
Set parameter WLSSecret
Set parameter LicenseID to value 2792458
Set parameter LogFile to value "gurobi.log"
Using license file /root/gurobi.lic
Academic license 2792458 - for non-commercial use only - registered to an___@studenti.unipg.it

Gurobi Optimizer version 13.0.1 build v13.0.1rc0 (linux64 - "Ubuntu 24.04.4 LTS")
Copyright (c) 2026, Gurobi Optimization, LLC

Warning: Duplicate section found (read 'binary') - Is a variable name equal to an LP file format keyword?
Warning: Duplicate section found (read 'binary') - Is a variable name equal to an LP file format keyword?
Warning: Duplicate section found (read 'binary') - Is a variable name equal to an LP file format keyword?
Warning: Duplicate section found (read 'binary') - Is a variable name equal to an LP file format keyword?
Warning: Duplicate section found (read 'binary') - Is a variable name equal to an LP file format keyword?
Warning: Duplicate section found (read 'binary') - Is a variable name equal to an LP file format keyword?
Warning: Duplicate section found (read 'binary') - Is a variable name equal to an LP file format keyword?
Warning: Duplicate section found (read 'binary') - Is a variable name equal to an LP file format keyword?
Warning: Duplicate section found (read 'binary') - Is a variable name equal to an LP file format keyword?
Warning: Duplicate section found (read 'binary') - Is a variable name equal to an LP file format keyword?
Warning: Further warnings of this type will be omitted.
Read LP format model from file /root/bgw/data/uploads/2026_03_23_13_35_40_set_exp_2_exp_2_n008_c002_g002_max.lp
Reading time = 0.00 seconds
: 266 rows, 63 columns, 707 nonzeros

Using Gurobi shared library /opt/gurobi1301/linux64/lib/libgurobi.so.13.0.1

CPU model: AMD EPYC-Genoa Processor, instruction set [SSE2|AVX|AVX2|AVX512]
Thread count: 16 physical cores, 16 logical processors, using up to 16 threads

Academic license 2792458 - for non-commercial use only - registered to an___@studenti.unipg.it
Optimize a model with 266 rows, 63 columns and 707 nonzeros (Max)
Model fingerprint: 0x14fd2352
Model has 6 linear objective coefficients
Variable types: 14 continuous, 49 integer (49 binary)
Coefficient statistics:
  Matrix range     [1e+00, 9e+00]
  Objective range  [1e+00, 1e+00]
  Bounds range     [1e+00, 1e+00]
  RHS range        [1e+00, 1e+01]

Found heuristic solution: objective 6.0000000
Presolve removed 133 rows and 22 columns
Presolve time: 0.00s
Presolved: 133 rows, 41 columns, 424 nonzeros
Variable types: 0 continuous, 41 integer (36 binary)
Found heuristic solution: objective 11.0000000

Root relaxation: objective 2.700000e+01, 24 iterations, 0.00 seconds (0.00 work units)

    Nodes    |    Current Node    |     Objective Bounds      |     Work
 Expl Unexpl |  Obj  Depth IntInf | Incumbent    BestBd   Gap | It/Node Time

     0     0   27.00000    0   12   11.00000   27.00000   145%     -    0s
H    0     0                      14.0000000   27.00000  92.9%     -    0s
H    0     0                      16.0000000   27.00000  68.8%     -    0s
H    0     0                      17.0000000   27.00000  58.8%     -    0s
     0     0   27.00000    0   13   17.00000   27.00000  58.8%     -    0s
     0     0   27.00000    0   14   17.00000   27.00000  58.8%     -    0s
     0     0   27.00000    0   14   17.00000   27.00000  58.8%     -    0s
     0     0   26.33333    0   14   17.00000   26.33333  54.9%     -    0s
     0     0   26.00000    0   11   17.00000   26.00000  52.9%     -    0s
     0     0   26.00000    0   11   17.00000   26.00000  52.9%     -    0s
     0     0   24.00000    0   14   17.00000   24.00000  41.2%     -    0s
     0     0   24.00000    0   14   17.00000   24.00000  41.2%     -    0s
     0     0   23.83333    0   13   17.00000   23.83333  40.2%     -    0s
     0     0   23.50000    0   15   17.00000   23.50000  38.2%     -    0s
     0     0   23.50000    0   15   17.00000   23.50000  38.2%     -    0s
     0     0   23.16667    0   15   17.00000   23.16667  36.3%     -    0s
     0     0   23.16667    0   14   17.00000   23.16667  36.3%     -    0s
     0     2   23.16667    0   12   17.00000   23.16667  36.3%     -    0s

Cutting planes:
  Gomory: 4
  Cover: 1
  MIR: 1
  Zero half: 1

Explored 198 nodes (1533 simplex iterations) in 0.06 seconds (0.02 work units)
Thread count was 16 (of 16 available processors)

Solution count 5: 17 16 14 ... 6

Optimal solution found (tolerance 1.00e-04)
Best objective 1.700000000000e+01, best bound 1.700000000000e+01, gap 0.0000%

Wrote result file '/root/bgw/data/results/2026_03_23_13_35_40_set_exp_2_exp_2_n008_c002_g002_max.sol'

